p edge 40 208 20
v 1 5
v 2 4 29
v 1 12
v 3 16 31 35
v 1 25
v 1 36
v 1 18
v 3 21 28 37
v 3 7 13 27
v 1 32
v 4 2 11 30 34
v 1 40
v 2 6 20
v 1 3
v 4 1 14 15 38
v 2 17 24
v 2 26 39
v 2 8 19
v 4 10 22 23 33
v 1 9
e 1 9
e 1 10
e 1 15
e 1 16
e 1 25
e 1 26
e 1 31
e 1 32
e 1 35
e 1 36
e 1 39
e 2 3
e 2 13
e 2 15
e 2 21
e 2 23
e 2 26
e 2 30
e 3 7
e 3 10
e 3 14
e 3 25
e 3 26
e 3 27
e 3 28
e 3 31
e 3 36
e 4 5
e 4 7
e 4 8
e 4 11
e 4 14
e 4 22
e 4 26
e 4 28
e 4 30
e 4 34
e 4 37
e 4 38
e 5 10
e 5 12
e 5 23
e 5 25
e 5 26
e 5 30
e 5 34
e 5 36
e 5 38
e 5 39
e 5 40
e 6 9
e 6 10
e 6 12
e 6 13
e 6 22
e 6 26
e 6 39
e 7 8
e 7 10
e 7 11
e 7 12
e 7 15
e 7 17
e 7 31
e 7 32
e 7 33
e 8 9
e 8 25
e 8 27
e 8 35
e 8 38
e 8 39
e 8 40
e 9 12
e 9 16
e 9 23
e 9 25
e 9 31
e 9 32
e 9 34
e 9 35
e 9 38
e 10 12
e 10 17
e 10 20
e 10 22
e 10 27
e 10 28
e 10 34
e 10 36
e 10 39
e 11 13
e 11 14
e 11 17
e 11 18
e 11 22
e 11 32
e 11 33
e 11 34
e 11 38
e 12 13
e 12 18
e 12 23
e 12 26
e 12 29
e 12 37
e 12 40
e 13 20
e 13 27
e 14 16
e 14 18
e 14 23
e 14 24
e 14 31
e 14 34
e 14 40
e 15 16
e 15 17
e 15 18
e 15 22
e 15 34
e 15 37
e 15 40
e 16 19
e 16 23
e 16 24
e 16 25
e 16 27
e 16 28
e 16 34
e 16 35
e 16 36
e 16 38
e 17 21
e 17 23
e 17 24
e 17 25
e 17 40
e 18 23
e 18 24
e 18 27
e 18 32
e 18 36
e 18 38
e 19 20
e 19 23
e 19 25
e 19 31
e 19 33
e 19 34
e 19 36
e 19 38
e 19 39
e 19 40
e 20 21
e 20 23
e 20 28
e 20 34
e 20 36
e 21 22
e 21 23
e 21 25
e 21 27
e 21 35
e 22 23
e 22 27
e 22 29
e 22 35
e 22 36
e 22 37
e 22 38
e 22 40
e 24 28
e 24 30
e 24 32
e 25 29
e 25 31
e 25 35
e 25 36
e 26 27
e 26 29
e 26 30
e 26 32
e 26 33
e 26 34
e 26 39
e 27 31
e 27 33
e 27 35
e 27 36
e 28 30
e 28 32
e 28 36
e 28 38
e 29 31
e 29 35
e 29 36
e 29 38
e 29 40
e 30 38
e 31 40
e 32 35
e 32 38
e 32 39
e 33 36
e 36 39
e 38 40
e 39 40
